40	100	100	100
99	94	30
82	75	34
90	76	19
83	85	22
77	91	38
79	74	16
80	89	48
79	71	21
69	74	9
92	70	42
90	79	24
81	94	28
97	68	20
99	72	13
96	76	37
66	86	17
88	79	3
80	85	13
69	99	15
89	84	16
87	85	38
77	99	38
86	94	49
96	77	29
81	81	10
92	72	43
73	80	32
87	81	37
91	68	33
97	86	16
84	82	20
90	76	28
81	73	48
89	67	24
72	88	44
98	91	46
81	95	44
80	69	46
67	66	30
70	68	36
